p cnf 12 50 
-12 -10 -2 0
1 -2 3 0
-9 -6 11 0
6 8 -2 0
-7 8 3 0
10 2 9 0
-10 -9 -11 0
3 -5 -9 0
2 12 9 0
-9 3 -2 0
2 1 -5 0
12 -1 -8 0
-12 2 11 0
6 7 1 0
-9 -10 7 0
-1 -9 10 0
-11 6 -5 0
-2 11 -7 0
-5 -4 -1 0
-12 9 6 0
7 5 -1 0
3 -9 6 0
8 -4 9 0
6 9 -8 0
5 6 -2 0
-4 -1 -3 0
-12 5 2 0
2 -6 8 0
5 4 -10 0
11 7 -4 0
-6 -3 -11 0
-9 8 -4 0
7 4 -2 0
-5 -2 -12 0
10 -8 11 0
9 1 -6 0
-2 5 7 0
2 -10 -9 0
-11 9 5 0
-8 12 -2 0
4 5 -3 0
3 -9 11 0
9 11 -3 0
11 -7 -1 0
-2 3 7 0
-5 12 -6 0
-5 3 7 0
5 2 -8 0
3 2 -9 0
11 -10 1 0
